\ Model _copy
\ LP format - for model browsing. Use MPS format to capture full model detail.
Minimize
 
Subject To
 dual_node_gas_balance_time_0_node_4S_0[EqualFeasible]:
   0.9 upper_chp_heat_output[0,0,0] - lower_well_output[0,0,0]
   + gas_flow_in[1,0,0] = 0
 original_feasible_dual_lower_well_output_max_0_t_0_S_0:
   - lower_well_output[0,0,0] >= 0
 original_feasible_dual_gas_flow_in_min1_t_0_S_0: gas_flow_in[1,0,0] >= 0
 dual_lower_chp_heat_output_0_0S0[EqualFeasible]:
   0.03 lower_chp_point[0,0,0,0] + 0.02 lower_chp_point[0,1,0,0]
   + 0.01 lower_chp_point[0,2,0,0] - lower_chp_heat_output[0,0,0] = 0
 dual_lower_chp_point_sum_one0_0S0[EqualFeasible]:
   - lower_chp_point[0,0,0,0] - lower_chp_point[0,1,0,0]
   - lower_chp_point[0,2,0,0] - lower_chp_point[0,3,0,0] = -1
 original_feasible_dual_lower_chp_point_less_one0_0S00:
   - lower_chp_point[0,0,0,0] >= -1
 original_feasible_dual_lower_chp_point_less_one0_0S01:
   - lower_chp_point[0,1,0,0] >= -1
 original_feasible_dual_lower_chp_point_great_zero0_0S03:
   lower_chp_point[0,3,0,0] >= 0
 dual_heater_balance0_0S0[EqualFeasible]: - upper_chp_heat_output[0,0,0]
   - lower_chp_heat_output[0,0,0] + 0.1 heat_node_tempe_supply[0,0,0]
   - 0.1 heat_node_tempe_return[0,0,0] = 0
 dual_exchanger_balance0_00[EqualFeasible]:
   - 0.04 heat_node_tempe_supply[3,0,0]
   + 0.04 heat_node_tempe_return[3,0,0] = -0.3266666666666667
 dual_exchanger_balance0_10[EqualFeasible]:
   - 0.02 heat_node_tempe_supply[4,0,0]
   + 0.02 heat_node_tempe_return[4,0,0] = -0.3266666666666667
 dual_exchanger_balance0_20[EqualFeasible]:
   - 0.04 heat_node_tempe_supply[5,0,0]
   + 0.04 heat_node_tempe_return[5,0,0] = -0.3266666666666667
 dual_line_temp_start_supply_0_0S0[EqualFeasible]:
   - heat_node_tempe_supply[0,0,0]
   + heat_pipe_start_tempe_supply_network[0,0,0] = 0
 dual_line_temp_start_return0_0S0[EqualFeasible]:
   - heat_node_tempe_return[1,0,0]
   + heat_pipe_start_tempe_return_network[0,0,0] = 0
 dual_line_temp_start_supply_0_1S0[EqualFeasible]:
   - heat_node_tempe_supply[1,0,0]
   + heat_pipe_start_tempe_supply_network[1,0,0] = 0
 dual_line_temp_start_return0_1S0[EqualFeasible]:
   - heat_node_tempe_return[2,0,0]
   + heat_pipe_start_tempe_return_network[1,0,0] = 0
 dual_line_temp_start_supply_0_2S0[EqualFeasible]:
   - heat_node_tempe_supply[2,0,0]
   + heat_pipe_start_tempe_supply_network[2,0,0] = 0
 dual_line_temp_start_return0_2S0[EqualFeasible]:
   - heat_node_tempe_return[3,0,0]
   + heat_pipe_start_tempe_return_network[2,0,0] = 0
 dual_line_temp_start_supply_0_3S0[EqualFeasible]:
   - heat_node_tempe_supply[1,0,0]
   + heat_pipe_start_tempe_supply_network[3,0,0] = 0
 dual_line_temp_start_return0_3S0[EqualFeasible]:
   - heat_node_tempe_return[4,0,0]
   + heat_pipe_start_tempe_return_network[3,0,0] = 0
 dual_line_temp_start_supply_0_4S0[EqualFeasible]:
   - heat_node_tempe_supply[2,0,0]
   + heat_pipe_start_tempe_supply_network[4,0,0] = 0
 dual_line_temp_start_return0_4S0[EqualFeasible]:
   - heat_node_tempe_return[5,0,0]
   + heat_pipe_start_tempe_return_network[4,0,0] = 0
 dual_mix_constraints_return0_0S0[EqualFeasible]:
   heat_node_tempe_return[0,0,0]
   - heat_pipe_end_tempe_return_network[0,0,0] = 0
 dual_mix_constraints_supply0_1S0[EqualFeasible]:
   heat_node_tempe_supply[1,0,0]
   - heat_pipe_end_tempe_supply_network[0,0,0] = 0
 dual_mix_constraints_return0_1S0[EqualFeasible]:
   heat_node_tempe_return[1,0,0]
   - 0.8 heat_pipe_end_tempe_return_network[1,0,0]
   - 0.2 heat_pipe_end_tempe_return_network[3,0,0] = 0
 dual_mix_constraints_supply0_2S0[EqualFeasible]:
   0.8 heat_node_tempe_supply[2,0,0]
   - 0.8 heat_pipe_end_tempe_supply_network[1,0,0] = 0
 dual_mix_constraints_return0_2S0[EqualFeasible]:
   0.8 heat_node_tempe_return[2,0,0]
   - 0.4 heat_pipe_end_tempe_return_network[2,0,0]
   - 0.4 heat_pipe_end_tempe_return_network[4,0,0] = 0
 dual_mix_constraints_supply0_3S0[EqualFeasible]:
   0.4 heat_node_tempe_supply[3,0,0]
   - 0.4 heat_pipe_end_tempe_supply_network[2,0,0] = 0
 dual_mix_constraints_supply0_4S0[EqualFeasible]:
   0.2 heat_node_tempe_supply[4,0,0]
   - 0.2 heat_pipe_end_tempe_supply_network[3,0,0] = 0
 dual_mix_constraints_supply0_5S0[EqualFeasible]:
   0.4 heat_node_tempe_supply[5,0,0]
   - 0.4 heat_pipe_end_tempe_supply_network[4,0,0] = 0
 dual_heat_loss_supply0_0S0[EqualFeasible]:
   heat_pipe_start_tempe_supply_network[0,0,0]
   - heat_pipe_end_tempe_supply_network[0,0,0] = 0
 dual_heat_loss_return0_0S0[EqualFeasible]:
   heat_pipe_start_tempe_return_network[0,0,0]
   - heat_pipe_end_tempe_return_network[0,0,0] = 0
 dual_heat_loss_supply0_1S0[EqualFeasible]:
   heat_pipe_start_tempe_supply_network[1,0,0]
   - heat_pipe_end_tempe_supply_network[1,0,0] = 0
 dual_heat_loss_return0_1S0[EqualFeasible]:
   heat_pipe_start_tempe_return_network[1,0,0]
   - heat_pipe_end_tempe_return_network[1,0,0] = 0
 dual_heat_loss_supply0_2S0[EqualFeasible]:
   heat_pipe_start_tempe_supply_network[2,0,0]
   - heat_pipe_end_tempe_supply_network[2,0,0] = 0
 dual_heat_loss_return0_2S0[EqualFeasible]:
   heat_pipe_start_tempe_return_network[2,0,0]
   - heat_pipe_end_tempe_return_network[2,0,0] = 0
 dual_heat_loss_supply0_3S0[EqualFeasible]:
   heat_pipe_start_tempe_supply_network[3,0,0]
   - heat_pipe_end_tempe_supply_network[3,0,0] = 0
 dual_heat_loss_return0_3S0[EqualFeasible]:
   heat_pipe_start_tempe_return_network[3,0,0]
   - heat_pipe_end_tempe_return_network[3,0,0] = 0
 dual_heat_loss_supply0_4S0[EqualFeasible]:
   heat_pipe_start_tempe_supply_network[4,0,0]
   - heat_pipe_end_tempe_supply_network[4,0,0] = 0
 dual_heat_loss_return0_4S0[EqualFeasible]:
   heat_pipe_start_tempe_return_network[4,0,0]
   - heat_pipe_end_tempe_return_network[4,0,0] = 0
Bounds
 lower_chp_point[0,0,0,0] free
 lower_chp_point[0,1,0,0] free
 lower_chp_point[0,2,0,0] free
 lower_chp_point[0,3,0,0] free
 upper_chp_heat_output[0,0,0] free
 lower_chp_heat_output[0,0,0] free
 heat_node_tempe_supply[0,0,0] free
 heat_node_tempe_supply[1,0,0] free
 heat_node_tempe_supply[2,0,0] free
 heat_node_tempe_supply[3,0,0] free
 heat_node_tempe_supply[4,0,0] free
 heat_node_tempe_supply[5,0,0] free
 heat_node_tempe_return[0,0,0] free
 heat_node_tempe_return[1,0,0] free
 heat_node_tempe_return[2,0,0] free
 heat_node_tempe_return[3,0,0] free
 heat_node_tempe_return[4,0,0] free
 heat_node_tempe_return[5,0,0] free
 heat_pipe_start_tempe_supply_network[0,0,0] free
 heat_pipe_start_tempe_supply_network[1,0,0] free
 heat_pipe_start_tempe_supply_network[2,0,0] free
 heat_pipe_start_tempe_supply_network[3,0,0] free
 heat_pipe_start_tempe_supply_network[4,0,0] free
 heat_pipe_end_tempe_supply_network[0,0,0] free
 heat_pipe_end_tempe_supply_network[1,0,0] free
 heat_pipe_end_tempe_supply_network[2,0,0] free
 heat_pipe_end_tempe_supply_network[3,0,0] free
 heat_pipe_end_tempe_supply_network[4,0,0] free
 heat_pipe_start_tempe_return_network[0,0,0] free
 heat_pipe_start_tempe_return_network[1,0,0] free
 heat_pipe_start_tempe_return_network[2,0,0] free
 heat_pipe_start_tempe_return_network[3,0,0] free
 heat_pipe_start_tempe_return_network[4,0,0] free
 heat_pipe_end_tempe_return_network[0,0,0] free
 heat_pipe_end_tempe_return_network[1,0,0] free
 heat_pipe_end_tempe_return_network[2,0,0] free
 heat_pipe_end_tempe_return_network[3,0,0] free
 heat_pipe_end_tempe_return_network[4,0,0] free
 lower_well_output[0,0,0] free
 gas_flow_in[1,0,0] free
End
